c A SAT instance generated from a 3-CNF formula that had 39 clauses and 13 variables
p cnf 13 39
-2 13 -4 0
-2 -3 -8 0
-13 5 -8 0
-4 8 10 0
7 -2 1 0
4 13 5 0
6 12 9 0
9 5 12 0
-1 -12 -4 0
-3 -1 2 0
11 -8 -2 0
-3 -2 13 0
-1 -4 -5 0
-10 -11 3 0
-5 -9 -8 0
10 1 6 0
12 -4 5 0
-2 12 1 0
11 8 -7 0
12 -8 -5 0
13 -9 -6 0
-1 -8 -10 0
11 7 3 0
-4 5 -2 0
4 9 11 0
-2 10 -5 0
13 -10 8 0
-1 -2 -9 0
5 4 12 0
-4 5 11 0
-11 -7 10 0
-11 -5 -3 0
12 -1 9 0
13 -8 -3 0
6 9 -11 0
3 -11 4 0
4 -2 6 0
-11 -4 1 0
11 3 -5 0
